TYPE: ATSP
DIMENSION: 11
FORMAT: FULL_MATRIX
OPT: 208
DATA_SECTION
0 21 34 29 18 42 38 50 36 11 25
39 0 45 32 41 27 33 19 28 44 37
24 35 0 21 50 17 22 39 27 46 33
32 26 19 0 48 37 33 25 41 40 50
27 41 44 21 0 38 16 35 43 19 26
33 25 31 24 49 0 36 20 22 41 30
45 40 50 16 31 23 0 32 19 28 44
12 29 24 27 42 50 38 0 35 37 22
47 39 22 33 29 18 50 31 0 42 19
22 34 41 28 50 27 45 19 28 0 35
36 50 29 48 33 30 16 25 42 38 0
EOF